benchmarks/result/reg2.output
sat
(model
  (define-fun x () String
    "a")
  (define-fun y () String
    "b")
  (define-fun z () String
    "a")
)
